(set-logic HORN)

(declare-fun state ((Array Int Int) Int Int Int (Array Int Int) (Array Int Int) Bool Bool Bool) Bool)


(assert (forall ((|!{c.3}| (Array Int Int)) (|!{SIZE}| Int) (|!{i}| Int) (|!{x}| Int) (|!{a.1}| (Array Int Int)) (|!{b.2}| (Array Int Int)) (|!pc[0]| Bool) (|!pc[1]| Bool) (|!pc[2]| Bool))
  (=>
   (let ((.def_40 (not |!pc[2]|)))
(let ((.def_38 (not |!pc[1]|)))
(let ((.def_37 (not |!pc[0]|)))
(let ((.def_39 (and .def_37 .def_38)))
(let ((.def_41 (and .def_39 .def_40)))
.def_41)))))
   (state |!{c.3}| |!{SIZE}| |!{i}| |!{x}| |!{a.1}| |!{b.2}| |!pc[0]| |!pc[1]| |!pc[2]|))))

(assert (forall ((|!{c.3}| (Array Int Int)) (|!{SIZE}| Int) (|!{i}| Int) (|!{x}| Int) (|!{a.1}| (Array Int Int)) (|!{b.2}| (Array Int Int)) (|!pc[0]| Bool) (|!pc[1]| Bool) (|!pc[2]| Bool)
                 (|!{c.3}.next| (Array Int Int)) (|!{SIZE}.next| Int) (|!{i}.next| Int) (|!{x}.next| Int) (|!{a.1}.next| (Array Int Int)) (|!{b.2}.next| (Array Int Int)) (|!pc[0].next| Bool) (|!pc[1].next| Bool) (|!pc[2].next| Bool)
                 (|%{x}#1| Int) (|%{a.1}#1| (Array Int Int)) (|%{b.2}#1| (Array Int Int)) (|%{c.3}#1| (Array Int Int)) (nd<0> Int) (nd_char<0> Int))
  (=>
   (and (state |!{c.3}| |!{SIZE}| |!{i}| |!{x}| |!{a.1}| |!{b.2}| |!pc[0]| |!pc[1]| |!pc[2]|)
(let ((.def_38 (not |!pc[1]|)))
(let ((.def_181 (and |!pc[0]| .def_38)))
(let ((.def_40 (not |!pc[2]|)))
(let ((.def_182 (and .def_40 .def_181)))
(let ((.def_123 (not |!pc[0].next|)))
(let ((.def_124 (and |!pc[1].next| .def_123)))
(let ((.def_67 (not |!pc[2].next|)))
(let ((.def_125 (and .def_67 .def_124)))
(let ((.def_185 (and .def_125 .def_182)))
(let ((.def_176 (= |!{x}.next| 0)))
(let ((.def_90 (= |!{SIZE}| |!{SIZE}.next|)))
(let ((.def_88 (= |!{c.3}| |!{c.3}.next|)))
(let ((.def_101 (and .def_88 .def_90)))
(let ((.def_92 (= |!{i}| |!{i}.next|)))
(let ((.def_102 (and .def_92 .def_101)))
(let ((.def_177 (and .def_102 .def_176)))
(let ((.def_96 (= |!{a.1}| |!{a.1}.next|)))
(let ((.def_178 (and .def_96 .def_177)))
(let ((.def_98 (= |!{b.2}| |!{b.2}.next|)))
(let ((.def_179 (and .def_98 .def_178)))
(let ((.def_140 (<= |!{SIZE}| |!{i}|)))
(let ((.def_180 (and .def_140 .def_179)))
(let ((.def_186 (and .def_180 .def_185)))
(let ((.def_65 (not |!pc[1].next|)))
(let ((.def_66 (and |!pc[0].next| .def_65)))
(let ((.def_68 (and .def_66 .def_67)))
(let ((.def_183 (and .def_68 .def_182)))
(let ((.def_168 (store |!{c.3}| |!{i}| 0)))
(let ((.def_169 (= |!{c.3}.next| .def_168)))
(let ((.def_170 (and .def_90 .def_169)))
(let ((.def_156 (* (- 1) |!{i}.next|)))
(let ((.def_157 (+ |!{i}| .def_156)))
(let ((.def_158 (= .def_157 (- 1))))
(let ((.def_171 (and .def_158 .def_170)))
(let ((.def_94 (= |!{x}| |!{x}.next|)))
(let ((.def_172 (and .def_94 .def_171)))
(let ((.def_144 (store |!{a.1}| |!{i}| nd_char<0>)))
(let ((.def_161 (= |!{a.1}.next| .def_144)))
(let ((.def_173 (and .def_161 .def_172)))
(let ((.def_146 (store |!{b.2}| |!{i}| nd_char<0>)))
(let ((.def_163 (= |!{b.2}.next| .def_146)))
(let ((.def_174 (and .def_163 .def_173)))
(let ((.def_141 (not .def_140)))
(let ((.def_175 (and .def_141 .def_174)))
(let ((.def_184 (and .def_175 .def_183)))
(let ((.def_187 (or .def_184 .def_186)))
(let ((.def_135 (and |!pc[0]| |!pc[1]|)))
(let ((.def_136 (and .def_40 .def_135)))
(let ((.def_137 (and .def_125 .def_136)))
(let ((.def_103 (* (- 1) |!{x}.next|)))
(let ((.def_104 (+ |!{x}| .def_103)))
(let ((.def_105 (= .def_104 (- 1))))
(let ((.def_106 (and .def_102 .def_105)))
(let ((.def_107 (and .def_96 .def_106)))
(let ((.def_108 (and .def_98 .def_107)))
(let ((.def_138 (and .def_108 .def_137)))
(let ((.def_129 (and .def_65 .def_123)))
(let ((.def_130 (and |!pc[2].next| .def_129)))
(let ((.def_37 (not |!pc[0]|)))
(let ((.def_117 (and |!pc[1]| .def_37)))
(let ((.def_118 (and .def_40 .def_117)))
(let ((.def_131 (and .def_118 .def_130)))
(let ((.def_71 (<= |!{SIZE}| |!{x}|)))
(let ((.def_111 (and .def_71 .def_88)))
(let ((.def_112 (and .def_90 .def_111)))
(let ((.def_113 (and .def_92 .def_112)))
(let ((.def_114 (and .def_94 .def_113)))
(let ((.def_115 (and .def_96 .def_114)))
(let ((.def_116 (and .def_98 .def_115)))
(let ((.def_132 (and .def_116 .def_131)))
(let ((.def_126 (and .def_118 .def_125)))
(let ((.def_75 (select |!{b.2}| |!{x}|)))
(let ((.def_74 (select |!{a.1}| |!{x}|)))
(let ((.def_79 (* (- 1) .def_74)))
(let ((.def_80 (+ .def_79 .def_75)))
(let ((.def_73 (select |!{c.3}| |!{x}|)))
(let ((.def_81 (+ .def_73 .def_80)))
(let ((.def_82 (= .def_81 0)))
(let ((.def_109 (and .def_82 .def_108)))
(let ((.def_72 (not .def_71)))
(let ((.def_110 (and .def_72 .def_109)))
(let ((.def_127 (and .def_110 .def_126)))
(let ((.def_119 (and |!pc[0].next| |!pc[1].next|)))
(let ((.def_120 (and .def_67 .def_119)))
(let ((.def_121 (and .def_118 .def_120)))
(let ((.def_83 (not .def_82)))
(let ((.def_89 (and .def_83 .def_88)))
(let ((.def_91 (and .def_89 .def_90)))
(let ((.def_93 (and .def_91 .def_92)))
(let ((.def_95 (and .def_93 .def_94)))
(let ((.def_97 (and .def_95 .def_96)))
(let ((.def_99 (and .def_97 .def_98)))
(let ((.def_100 (and .def_72 .def_99)))
(let ((.def_122 (and .def_100 .def_121)))
(let ((.def_128 (or .def_122 .def_127)))
(let ((.def_133 (or .def_128 .def_132)))
(let ((.def_39 (and .def_37 .def_38)))
(let ((.def_41 (and .def_39 .def_40)))
(let ((.def_69 (and .def_41 .def_68)))
(let ((.def_62 (= |!{b.2}.next| |%{b.2}#1|)))
(let ((.def_60 (= |!{a.1}.next| |%{a.1}#1|)))
(let ((.def_58 (= |!{x}.next| |%{x}#1|)))
(let ((.def_56 (= |!{i}.next| 0)))
(let ((.def_54 (= |!{SIZE}.next| nd<0>)))
(let ((.def_53 (= |!{c.3}.next| |%{c.3}#1|)))
(let ((.def_55 (and .def_53 .def_54)))
(let ((.def_57 (and .def_55 .def_56)))
(let ((.def_59 (and .def_57 .def_58)))
(let ((.def_61 (and .def_59 .def_60)))
(let ((.def_63 (and .def_61 .def_62)))
(let ((.def_51 (<= nd<0> 0)))
(let ((.def_52 (not .def_51)))
(let ((.def_64 (and .def_52 .def_63)))
(let ((.def_70 (and .def_64 .def_69)))
(let ((.def_134 (or .def_70 .def_133)))
(let ((.def_139 (or .def_134 .def_138)))
(let ((.def_188 (or .def_139 .def_187)))
.def_188)))))))))))))))))))))))))))))))))))))))))))))))))))))))))))))))))))))))))))))))))))))))))))))))))))))))))))))))))))))
   ) (state |!{c.3}.next| |!{SIZE}.next| |!{i}.next| |!{x}.next| |!{a.1}.next| |!{b.2}.next| |!pc[0].next| |!pc[1].next| |!pc[2].next|))))

(assert (forall ((|!{c.3}| (Array Int Int)) (|!{SIZE}| Int) (|!{i}| Int) (|!{x}| Int) (|!{a.1}| (Array Int Int)) (|!{b.2}| (Array Int Int)) (|!pc[0]| Bool) (|!pc[1]| Bool) (|!pc[2]| Bool))
  (=> (state |!{c.3}| |!{SIZE}| |!{i}| |!{x}| |!{a.1}| |!{b.2}| |!pc[0]| |!pc[1]| |!pc[2]|)
(let ((.def_135 (and |!pc[0]| |!pc[1]|)))
(let ((.def_40 (not |!pc[2]|)))
(let ((.def_136 (and .def_40 .def_135)))
(let ((.def_189 (not .def_136)))
.def_189))))
)))

(check-sat)
